Bruniera/ragionamento automatico/progetto/benchmark/asp/easy3.lp
start(0).
limit(6).
n(12).
strada(0,3,19).
strada(0,4,7).
strada(0,5,11).
strada(0,7,8).
strada(0,8,6).
strada(0,9,7).
strada(0,10,20).
strada(1,2,17).
strada(1,3,10).
strada(1,4,3).
strada(1,5,20).
strada(1,6,20).
strada(1,8,15).
strada(1,11,4).
strada(2,4,1).
strada(2,5,2).
strada(2,9,4).
strada(3,5,20).
strada(3,6,11).
strada(3,7,11).
strada(3,10,0).
strada(4,0,3).
strada(4,1,6).
strada(4,2,15).
strada(4,9,12).
strada(4,11,4).
strada(5,0,4).
strada(5,1,17).
strada(5,4,9).
strada(5,6,2).
strada(5,7,17).
strada(5,11,6).
strada(6,2,12).
strada(6,4,15).
strada(6,5,14).
strada(6,7,6).
strada(6,11,8).
strada(7,4,11).
strada(7,5,4).
strada(7,8,0).
strada(7,9,8).
strada(8,0,17).
strada(8,6,18).
strada(8,9,11).
strada(9,0,5).
strada(9,1,15).
strada(9,5,3).
strada(9,6,14).
strada(9,7,1).
strada(9,10,14).
strada(10,2,18).
strada(10,3,4).
strada(10,7,12).
strada(10,8,0).
strada(10,9,9).
strada(10,11,18).
strada(11,0,4).
strada(11,1,19).
strada(11,2,10).
strada(11,6,9).
strada(11,9,6).
strada(11,10,13).
