Bruniera/ragionamento automatico/progetto/benchmark/minizinc/easy3.dzn
start = 1;
limit = 6;
n = 12;
m=[|-1,-1,-1,19,7,11,-1,8,6,7,20,-1,
|-1,-1,17,10,3,20,20,-1,15,-1,-1,4,
|-1,-1,-1,-1,1,2,-1,-1,-1,4,-1,-1,
|-1,-1,-1,-1,-1,20,11,11,-1,-1,0,-1,
|3,6,15,-1,-1,-1,-1,-1,-1,12,-1,4,
|4,17,-1,-1,9,-1,2,17,-1,-1,-1,6,
|-1,-1,12,-1,15,14,-1,6,-1,-1,-1,8,
|-1,-1,-1,-1,11,4,-1,-1,0,8,-1,-1,
|17,-1,-1,-1,-1,-1,18,-1,-1,11,-1,-1,
|5,15,-1,-1,-1,3,14,1,-1,-1,14,-1,
|-1,-1,18,4,-1,-1,-1,12,0,9,-1,18,
|4,19,10,-1,-1,-1,9,-1,-1,6,13,-1,
|]
;